examples/inputs/input13.dzn
n = 51;
l = 450;
s = 450;
r = 450;
f = 100;
forbidden = [| 21, 29
	| 13, 14
	| 40, 36
	| 34, 29
	| 3, 30
	| 51, 14
	| 32, 51
	| 26, 50
	| 16, 34
	| 16, 32
	| 21, 14
	| 3, 49
	| 30, 41
	| 51, 48
	| 2, 22
	| 1, 13
	| 37, 26
	| 33, 23
	| 11, 30
	| 51, 32
	| 7, 25
	| 37, 28
	| 7, 33
	| 27, 11
	| 25, 48
	| 21, 37
	| 10, 24
	| 26, 51
	| 33, 11
	| 42, 18
	| 21, 36
	| 40, 16
	| 22, 10
	| 48, 7
	| 23, 29
	| 22, 51
	| 7, 41
	| 29, 39
	| 46, 44
	| 27, 33
	| 29, 24
	| 31, 49
	| 48, 1
	| 28, 11
	| 20, 19
	| 9, 48
	| 9, 50
	| 19, 27
	| 47, 51
	| 4, 15
	| 39, 4
	| 21, 17
	| 6, 41
	| 9, 51
	| 43, 35
	| 31, 46
	| 49, 45
	| 36, 24
	| 12, 19
	| 14, 27
	| 45, 6
	| 39, 7
	| 40, 21
	| 29, 28
	| 3, 14
	| 20, 21
	| 12, 14
	| 29, 32
	| 47, 5
	| 38, 33
	| 41, 28
	| 45, 2
	| 41, 21
	| 25, 24
	| 19, 24
	| 3, 15
	| 42, 8
	| 31, 7
	| 15, 30
	| 39, 3
	| 51, 11
	| 18, 21
	| 44, 22
	| 50, 34
	| 17, 20
	| 7, 3
	| 28, 32
	| 36, 12
	| 16, 11
	| 8, 17
	| 48, 26
	| 15, 20
	| 16, 24
	| 10, 34
	| 6, 16
	| 5, 15
	| 48, 34
	| 18, 44
	| 16, 13
	| 11, 16
	|];