examples/inputs/input13.lp
#const n = 51.
#const l = 450.
#const s = 450.
#const r = 450.
#const f = 100.
val(21, 29, xxx).
val(13, 14, xxx).
val(40, 36, xxx).
val(34, 29, xxx).
val(3, 30, xxx).
val(51, 14, xxx).
val(32, 51, xxx).
val(26, 50, xxx).
val(16, 34, xxx).
val(16, 32, xxx).
val(21, 14, xxx).
val(3, 49, xxx).
val(30, 41, xxx).
val(51, 48, xxx).
val(2, 22, xxx).
val(1, 13, xxx).
val(37, 26, xxx).
val(33, 23, xxx).
val(11, 30, xxx).
val(51, 32, xxx).
val(7, 25, xxx).
val(37, 28, xxx).
val(7, 33, xxx).
val(27, 11, xxx).
val(25, 48, xxx).
val(21, 37, xxx).
val(10, 24, xxx).
val(26, 51, xxx).
val(33, 11, xxx).
val(42, 18, xxx).
val(21, 36, xxx).
val(40, 16, xxx).
val(22, 10, xxx).
val(48, 7, xxx).
val(23, 29, xxx).
val(22, 51, xxx).
val(7, 41, xxx).
val(29, 39, xxx).
val(46, 44, xxx).
val(27, 33, xxx).
val(29, 24, xxx).
val(31, 49, xxx).
val(48, 1, xxx).
val(28, 11, xxx).
val(20, 19, xxx).
val(9, 48, xxx).
val(9, 50, xxx).
val(19, 27, xxx).
val(47, 51, xxx).
val(4, 15, xxx).
val(39, 4, xxx).
val(21, 17, xxx).
val(6, 41, xxx).
val(9, 51, xxx).
val(43, 35, xxx).
val(31, 46, xxx).
val(49, 45, xxx).
val(36, 24, xxx).
val(12, 19, xxx).
val(14, 27, xxx).
val(45, 6, xxx).
val(39, 7, xxx).
val(40, 21, xxx).
val(29, 28, xxx).
val(3, 14, xxx).
val(20, 21, xxx).
val(12, 14, xxx).
val(29, 32, xxx).
val(47, 5, xxx).
val(38, 33, xxx).
val(41, 28, xxx).
val(45, 2, xxx).
val(41, 21, xxx).
val(25, 24, xxx).
val(19, 24, xxx).
val(3, 15, xxx).
val(42, 8, xxx).
val(31, 7, xxx).
val(15, 30, xxx).
val(39, 3, xxx).
val(51, 11, xxx).
val(18, 21, xxx).
val(44, 22, xxx).
val(50, 34, xxx).
val(17, 20, xxx).
val(7, 3, xxx).
val(28, 32, xxx).
val(36, 12, xxx).
val(16, 11, xxx).
val(8, 17, xxx).
val(48, 26, xxx).
val(15, 20, xxx).
val(16, 24, xxx).
val(10, 34, xxx).
val(6, 16, xxx).
val(5, 15, xxx).
val(48, 34, xxx).
val(18, 44, xxx).
val(16, 13, xxx).
val(11, 16, xxx).